2297.71
0 56 11 53 68 34 41 0
0 54 5 38 66 75 30 0
0 72 39 35 51 9 2 17 59 0
0 28 7 67 21 60 20 0
0 40 57 29 23 55 43 62 70 47 0
0 15 64 22 61 26 46 10 0
0 13 37 73 42 65 58 32 16 19 0
0 45 8 1 6 12 50 63 44 0
0 48 27 33 74 25 31 71 36 69 0
0 52 3 18 49 4 24 14 0
